# I selected the following arcs
#(3,6): 840
#(6,14): 720
#(11,12): 600
#(12,13): 480
#(7,19): 360
#(11,22): 360
#(14,13): 360

# the boundary will be half its current flow

param y :=
3   6    400
6   14   300
11  12   300
12  13   200
7   19   150
11  22   150
;